NAME : n40w140.005.438.tour
COMMENT : Length = 438
COMMENT : Found by LKH [Keld Helsgaun] Tue Nov  7 19:39:12 2017
TYPE : TOUR
DIMENSION : 41
TOUR_SECTION
1
25
12
30
27
22
8
7
33
37
14
24
34
16
3
5
36
21
38
6
19
35
11
17
29
39
9
18
32
40
28
26
2
20
4
23
31
15
10
41
13
-1
EOF
